WARNING: for repeatability, setting FPU to use double precision
============================[ Problem Statistics ]=============================
|                                                                             |
|  Number of variables:           100                                         |
|  Number of clauses:             449                                         |
|  Parse time:                   0.00 s                                       |
|  Eliminated clauses:           0.00 Mb                                      |
|  Simplification time:          0.00 s                                       |
|                                                                             |
============================[ Search Statistics ]==============================
| Conflicts |          ORIGINAL         |          LEARNT          | Progress |
|           |    Vars  Clauses Literals |    Limit  Clauses Lit/Cl |          |
===============================================================================
|       100 |      97      432     1302 |      158      100      7 |  0.010 % |
|       250 |      97      432     1302 |      174      164      7 |  0.010 % |
===============================================================================
restarts              : 3
conflicts             : 293            (108278 /sec)
decisions             : 354            (0.00 % random) (130820 /sec)
propagations          : 7183           (2654472 /sec)
conflict literals     : 1930           (19.72 % deleted)
Memory used           : 13.00 MB
CPU time              : 0.002706 s

SATISFIABLE
